language Essence 1.3

letting codeWordLength be 34
letting dist be
        function((1, 1) --> 0, (1, 2) --> 10, (1, 3) --> 13, (1, 4) --> 16, (1, 5) --> 4, (1, 6) --> 0, (1, 7) --> 17,
                 (1, 8) --> 14, (1, 9) --> 3, (1, 10) --> 17, (1, 11) --> 13, (1, 12) --> 6, (1, 13) --> 16,
                 (1, 14) --> 12, (1, 15) --> 3, (2, 1) --> 10, (2, 2) --> 0, (2, 3) --> 16, (2, 4) --> 5, (2, 5) --> 13,
                 (2, 6) --> 13, (2, 7) --> 20, (2, 8) --> 21, (2, 9) --> 7, (2, 10) --> 17, (2, 11) --> 6,
                 (2, 12) --> 6, (2, 13) --> 8, (2, 14) --> 2, (2, 15) --> 16, (3, 1) --> 13, (3, 2) --> 16,
                 (3, 3) --> 0, (3, 4) --> 4, (3, 5) --> 19, (3, 6) --> 0, (3, 7) --> 23, (3, 8) --> 21, (3, 9) --> 22,
                 (3, 10) --> 10, (3, 11) --> 3, (3, 12) --> 18, (3, 13) --> 8, (3, 14) --> 7, (3, 15) --> 5,
                 (4, 1) --> 16, (4, 2) --> 5, (4, 3) --> 4, (4, 4) --> 0, (4, 5) --> 7, (4, 6) --> 4, (4, 7) --> 16,
                 (4, 8) --> 21, (4, 9) --> 6, (4, 10) --> 19, (4, 11) --> 20, (4, 12) --> 3, (4, 13) --> 6,
                 (4, 14) --> 0, (4, 15) --> 7, (5, 1) --> 4, (5, 2) --> 13, (5, 3) --> 19, (5, 4) --> 7, (5, 5) --> 0,
                 (5, 6) --> 8, (5, 7) --> 2, (5, 8) --> 13, (5, 9) --> 8, (5, 10) --> 15, (5, 11) --> 22,
                 (5, 12) --> 23, (5, 13) --> 18, (5, 14) --> 20, (5, 15) --> 1, (6, 1) --> 0, (6, 2) --> 13,
                 (6, 3) --> 0, (6, 4) --> 4, (6, 5) --> 8, (6, 6) --> 0, (6, 7) --> 6, (6, 8) --> 18, (6, 9) --> 18,
                 (6, 10) --> 21, (6, 11) --> 20, (6, 12) --> 18, (6, 13) --> 14, (6, 14) --> 4, (6, 15) --> 19,
                 (7, 1) --> 17, (7, 2) --> 20, (7, 3) --> 23, (7, 4) --> 16, (7, 5) --> 2, (7, 6) --> 6, (7, 7) --> 0,
                 (7, 8) --> 11, (7, 9) --> 20, (7, 10) --> 18, (7, 11) --> 9, (7, 12) --> 13, (7, 13) --> 11,
                 (7, 14) --> 3, (7, 15) --> 16, (8, 1) --> 14, (8, 2) --> 21, (8, 3) --> 21, (8, 4) --> 21,
                 (8, 5) --> 13, (8, 6) --> 18, (8, 7) --> 11, (8, 8) --> 0, (8, 9) --> 21, (8, 10) --> 0,
                 (8, 11) --> 15, (8, 12) --> 1, (8, 13) --> 9, (8, 14) --> 1, (8, 15) --> 15, (9, 1) --> 3,
                 (9, 2) --> 7, (9, 3) --> 22, (9, 4) --> 6, (9, 5) --> 8, (9, 6) --> 18, (9, 7) --> 20, (9, 8) --> 21,
                 (9, 9) --> 0, (9, 10) --> 11, (9, 11) --> 22, (9, 12) --> 3, (9, 13) --> 15, (9, 14) --> 11,
                 (9, 15) --> 9, (10, 1) --> 17, (10, 2) --> 17, (10, 3) --> 10, (10, 4) --> 19, (10, 5) --> 15,
                 (10, 6) --> 21, (10, 7) --> 18, (10, 8) --> 0, (10, 9) --> 11, (10, 10) --> 0, (10, 11) --> 2,
                 (10, 12) --> 2, (10, 13) --> 23, (10, 14) --> 13, (10, 15) --> 11, (11, 1) --> 13, (11, 2) --> 6,
                 (11, 3) --> 3, (11, 4) --> 20, (11, 5) --> 22, (11, 6) --> 20, (11, 7) --> 9, (11, 8) --> 15,
                 (11, 9) --> 22, (11, 10) --> 2, (11, 11) --> 0, (11, 12) --> 18, (11, 13) --> 12, (11, 14) --> 22,
                 (11, 15) --> 23, (12, 1) --> 6, (12, 2) --> 6, (12, 3) --> 18, (12, 4) --> 3, (12, 5) --> 23,
                 (12, 6) --> 18, (12, 7) --> 13, (12, 8) --> 1, (12, 9) --> 3, (12, 10) --> 2, (12, 11) --> 18,
                 (12, 12) --> 0, (12, 13) --> 10, (12, 14) --> 4, (12, 15) --> 15, (13, 1) --> 16, (13, 2) --> 8,
                 (13, 3) --> 8, (13, 4) --> 6, (13, 5) --> 18, (13, 6) --> 14, (13, 7) --> 11, (13, 8) --> 9,
                 (13, 9) --> 15, (13, 10) --> 23, (13, 11) --> 12, (13, 12) --> 10, (13, 13) --> 0, (13, 14) --> 14,
                 (13, 15) --> 22, (14, 1) --> 12, (14, 2) --> 2, (14, 3) --> 7, (14, 4) --> 0, (14, 5) --> 20,
                 (14, 6) --> 4, (14, 7) --> 3, (14, 8) --> 1, (14, 9) --> 11, (14, 10) --> 13, (14, 11) --> 22,
                 (14, 12) --> 4, (14, 13) --> 14, (14, 14) --> 0, (14, 15) --> 12, (15, 1) --> 3, (15, 2) --> 16,
                 (15, 3) --> 5, (15, 4) --> 7, (15, 5) --> 1, (15, 6) --> 19, (15, 7) --> 16, (15, 8) --> 15,
                 (15, 9) --> 9, (15, 10) --> 11, (15, 11) --> 23, (15, 12) --> 15, (15, 13) --> 22, (15, 14) --> 12,
                 (15, 15) --> 0)
letting maxDist be 49
letting minDist be 160
letting nbCharacter be 15
letting numOfCodeWords be 5
